
  12    4
  10   10   10   10

   0   0   0   0   0   5 2 3 4 10 11 
   2  10  10  10  10   2 7 5 
   3  10  10  10  10   2 7 5 
   4  10  10  10  10   3 9 7 6 
   7  10  10  10  10   2 8 6 
   4  10  10  10  10   1 12
  10  10  10  10  10   1 12
   3  10  10  10  10   1 12
   3  10  10  10  10   1 12
  10  10  10  10  10   1 12
   9  10  10  10  10   1 12
   0   0   0   0   0   0 
